50
20152

577 434
393 101
674 965
450 527
663 47
92 312
150 74
473 694
556 508
279 863
139 951
160 151
209 890
36 831
614 19
861 878
244 294
97 635
306 489
112 290
567 16
264 329
461 588
527 611
422 725
818 5
940 560
717 709
188 228
699 750
698 38
398 249
525 297
886 540
937 725
882 605
481 451
545 11
601 435
906 856
32 722
864 321
823 674
944 769
268 983
213 632
242 504
389 590
599 378
710 2
